FILENAME:   /home/mcs001/s132664/testsets/IP/miplib2017/neos-3696678-lyvia.mps.gz
SETTINGS:   settings_isopr_minimalindexbranching_avoidsubtreenodes
TIMELIMIT:  7200
OUTPUTNAME: final_miplib_symretope_if_extended_generating_set_cpx_v802__settings_isopr_minimalindexbranching_avoidsubtreenodes__1__
BINNAME:    bin/symmetries.linux.x86_64.gnu.opt.cpx
BASENAME:   neos-3696678-lyvia.mps.gz
SEED:       1
@01 /home/mcs001/s132664/testsets/IP/miplib2017/neos-3696678-lyvia.mps.gz ===========
@02 neos-3696678-lyvia.mps.gz
@03 1686566709
SCIP version 8.0.2 [precision: 8 byte] [memory: block] [mode: optimized] [LP solver: CPLEX 20.1.0.0] [GitHash: 5f0473c]
Copyright (C) 2002-2022 Konrad-Zuse-Zentrum fuer Informationstechnik Berlin (ZIB)

Symmetry handling routines - (c) Marc Pfetsch, Thomas Rehn, Christopher Hojny.
[GitHash: a1587cb]


Turned off presolver <gateextraction>.
reading parameter file <../settings/settings_isopr_minimalindexbranching_avoidsubtreenodes.set> ...

Changed settings:
limits/time = 7200
limits/restarts = 0
randomization/randomseedshift = 1
constraints/orbitope/sepafreq = -1
constraints/orbitope/propfreq = 1
presolving/gateextraction/maxrounds = 0
propagating/isoprune/avoidsubtreenodes = TRUE
useisoprune = TRUE
usebranchfirst = TRUE


solving problem ...

original problem has 7683 variables (7516 bin, 167 int, 0 impl, 0 cont) and 9004 constraints
presolving:
(round 1, fast)       3907 del vars, 7558 del conss, 0 add conss, 3663 chg bounds, 788 chg sides, 788 chg coeffs, 0 upgd conss, 276 impls, 167 clqs
(round 2, fast)       3936 del vars, 7558 del conss, 0 add conss, 3663 chg bounds, 788 chg sides, 788 chg coeffs, 0 upgd conss, 276 impls, 300 clqs
(round 3, medium)     3994 del vars, 7558 del conss, 0 add conss, 3663 chg bounds, 788 chg sides, 788 chg coeffs, 0 upgd conss, 276 impls, 213 clqs
(round 4, fast)       4197 del vars, 7684 del conss, 0 add conss, 3663 chg bounds, 788 chg sides, 788 chg coeffs, 0 upgd conss, 276 impls, 213 clqs
(round 5, fast)       4946 del vars, 7753 del conss, 0 add conss, 3663 chg bounds, 788 chg sides, 788 chg coeffs, 0 upgd conss, 276 impls, 209 clqs
(round 6, exhaustive) 4946 del vars, 7753 del conss, 0 add conss, 3663 chg bounds, 788 chg sides, 788 chg coeffs, 841 upgd conss, 276 impls, 209 clqs
(round 7, fast)       4979 del vars, 7753 del conss, 0 add conss, 3663 chg bounds, 788 chg sides, 788 chg coeffs, 841 upgd conss, 694 impls, 765 clqs
(round 8, fast)       5008 del vars, 7782 del conss, 0 add conss, 3663 chg bounds, 788 chg sides, 792 chg coeffs, 841 upgd conss, 694 impls, 736 clqs
(round 9, medium)     5145 del vars, 7782 del conss, 0 add conss, 3663 chg bounds, 788 chg sides, 834 chg coeffs, 841 upgd conss, 763 impls, 425 clqs
(round 10, fast)       5671 del vars, 8038 del conss, 0 add conss, 3732 chg bounds, 791 chg sides, 903 chg coeffs, 841 upgd conss, 763 impls, 425 clqs
(round 11, fast)       5823 del vars, 8245 del conss, 138 add conss, 3732 chg bounds, 791 chg sides, 903 chg coeffs, 841 upgd conss, 763 impls, 563 clqs
(round 12, medium)     5892 del vars, 8245 del conss, 138 add conss, 3732 chg bounds, 791 chg sides, 903 chg coeffs, 841 upgd conss, 763 impls, 425 clqs
(round 13, fast)       5892 del vars, 8383 del conss, 138 add conss, 3732 chg bounds, 791 chg sides, 903 chg coeffs, 841 upgd conss, 763 impls, 425 clqs
(round 14, exhaustive) 5892 del vars, 8383 del conss, 138 add conss, 3732 chg bounds, 791 chg sides, 903 chg coeffs, 1113 upgd conss, 763 impls, 425 clqs
(round 15, fast)       5961 del vars, 8383 del conss, 138 add conss, 3732 chg bounds, 791 chg sides, 903 chg coeffs, 1113 upgd conss, 828 impls, 490 clqs
(round 16, fast)       6030 del vars, 8452 del conss, 138 add conss, 3732 chg bounds, 791 chg sides, 903 chg coeffs, 1113 upgd conss, 828 impls, 421 clqs
(round 17, exhaustive) 6096 del vars, 8452 del conss, 138 add conss, 3732 chg bounds, 791 chg sides, 903 chg coeffs, 1113 upgd conss, 828 impls, 414 clqs
(round 18, fast)       6096 del vars, 8459 del conss, 138 add conss, 3732 chg bounds, 791 chg sides, 907 chg coeffs, 1113 upgd conss, 828 impls, 414 clqs
   (0.2s) probing: 1000/1616 (61.9%) - 9 fixings, 1 aggregations, 1344 implications, 0 bound changes
(round 19, exhaustive) 6121 del vars, 8459 del conss, 138 add conss, 3732 chg bounds, 791 chg sides, 907 chg coeffs, 1113 upgd conss, 1105 impls, 1504 clqs
(round 20, exhaustive) 6127 del vars, 8460 del conss, 138 add conss, 3732 chg bounds, 791 chg sides, 907 chg coeffs, 1113 upgd conss, 1106 impls, 1486 clqs
(round 21, exhaustive) 6156 del vars, 8460 del conss, 138 add conss, 3732 chg bounds, 791 chg sides, 907 chg coeffs, 1113 upgd conss, 1129 impls, 1751 clqs
(round 22, fast)       6156 del vars, 8461 del conss, 138 add conss, 3732 chg bounds, 791 chg sides, 907 chg coeffs, 1113 upgd conss, 1129 impls, 1772 clqs
(round 23, medium)     6178 del vars, 8461 del conss, 138 add conss, 3732 chg bounds, 791 chg sides, 907 chg coeffs, 1113 upgd conss, 1150 impls, 1361 clqs
(round 24, fast)       6286 del vars, 8482 del conss, 138 add conss, 3732 chg bounds, 791 chg sides, 907 chg coeffs, 1113 upgd conss, 1150 impls, 1361 clqs
(round 25, exhaustive) 6314 del vars, 8482 del conss, 138 add conss, 3732 chg bounds, 791 chg sides, 907 chg coeffs, 1113 upgd conss, 1165 impls, 1422 clqs
(round 26, fast)       6314 del vars, 8483 del conss, 138 add conss, 3732 chg bounds, 791 chg sides, 907 chg coeffs, 1113 upgd conss, 1165 impls, 1435 clqs
(round 27, exhaustive) 6314 del vars, 8483 del conss, 138 add conss, 3732 chg bounds, 791 chg sides, 907 chg coeffs, 1126 upgd conss, 1165 impls, 1435 clqs
(round 28, fast)       6386 del vars, 8483 del conss, 138 add conss, 3732 chg bounds, 791 chg sides, 907 chg coeffs, 1126 upgd conss, 1165 impls, 1219 clqs
(round 29, fast)       6399 del vars, 8497 del conss, 139 add conss, 3732 chg bounds, 791 chg sides, 907 chg coeffs, 1126 upgd conss, 1178 impls, 1167 clqs
(round 30, exhaustive) 6424 del vars, 8497 del conss, 139 add conss, 3732 chg bounds, 791 chg sides, 907 chg coeffs, 1126 upgd conss, 1178 impls, 1153 clqs
(round 31, fast)       6424 del vars, 8498 del conss, 140 add conss, 3732 chg bounds, 791 chg sides, 907 chg coeffs, 1126 upgd conss, 1178 impls, 1153 clqs
(round 32, exhaustive) 6449 del vars, 8498 del conss, 140 add conss, 3732 chg bounds, 791 chg sides, 907 chg coeffs, 1126 upgd conss, 1181 impls, 1128 clqs
(round 33, fast)       6449 del vars, 8501 del conss, 143 add conss, 3732 chg bounds, 791 chg sides, 907 chg coeffs, 1126 upgd conss, 1181 impls, 1131 clqs
(round 34, medium)     6453 del vars, 8501 del conss, 143 add conss, 3732 chg bounds, 791 chg sides, 907 chg coeffs, 1126 upgd conss, 1184 impls, 1083 clqs
(round 35, fast)       6464 del vars, 8504 del conss, 143 add conss, 3732 chg bounds, 791 chg sides, 907 chg coeffs, 1126 upgd conss, 1184 impls, 1083 clqs
(round 36, exhaustive) 6489 del vars, 8504 del conss, 143 add conss, 3732 chg bounds, 791 chg sides, 909 chg coeffs, 1126 upgd conss, 1184 impls, 1053 clqs
(round 37, fast)       6491 del vars, 8515 del conss, 149 add conss, 3732 chg bounds, 791 chg sides, 909 chg coeffs, 1126 upgd conss, 1184 impls, 1036 clqs
(round 38, fast)       6527 del vars, 8528 del conss, 149 add conss, 3732 chg bounds, 791 chg sides, 909 chg coeffs, 1126 upgd conss, 1184 impls, 963 clqs
(round 39, exhaustive) 6552 del vars, 8528 del conss, 149 add conss, 3732 chg bounds, 791 chg sides, 910 chg coeffs, 1126 upgd conss, 1190 impls, 947 clqs
(round 40, fast)       6553 del vars, 8534 del conss, 152 add conss, 3732 chg bounds, 791 chg sides, 910 chg coeffs, 1126 upgd conss, 1190 impls, 947 clqs
(round 41, fast)       6569 del vars, 8538 del conss, 152 add conss, 3732 chg bounds, 791 chg sides, 910 chg coeffs, 1126 upgd conss, 1190 impls, 928 clqs
(round 42, exhaustive) 6569 del vars, 8538 del conss, 152 add conss, 3732 chg bounds, 791 chg sides, 910 chg coeffs, 1132 upgd conss, 1190 impls, 928 clqs
(round 43, fast)       6584 del vars, 8540 del conss, 152 add conss, 3732 chg bounds, 791 chg sides, 910 chg coeffs, 1132 upgd conss, 1190 impls, 888 clqs
(round 44, fast)       6598 del vars, 8555 del conss, 157 add conss, 3732 chg bounds, 791 chg sides, 910 chg coeffs, 1132 upgd conss, 1196 impls, 851 clqs
(round 45, fast)       6600 del vars, 8555 del conss, 157 add conss, 3732 chg bounds, 791 chg sides, 910 chg coeffs, 1132 upgd conss, 1196 impls, 851 clqs
(round 46, exhaustive) 6625 del vars, 8555 del conss, 157 add conss, 3732 chg bounds, 791 chg sides, 913 chg coeffs, 1132 upgd conss, 1196 impls, 828 clqs
(round 47, fast)       6626 del vars, 8564 del conss, 161 add conss, 3732 chg bounds, 791 chg sides, 913 chg coeffs, 1132 upgd conss, 1196 impls, 817 clqs
(round 48, fast)       6639 del vars, 8564 del conss, 161 add conss, 3732 chg bounds, 791 chg sides, 913 chg coeffs, 1132 upgd conss, 1196 impls, 817 clqs
   (0.2s) probing cycle finished: starting next cycle
   (0.2s) probing: 51/1062 (4.8%) - 167 fixings, 51 aggregations, 2380 implications, 0 bound changes
   (0.2s) probing aborted: 50/50 successive totally useless probings
(round 49, exhaustive) 6650 del vars, 8564 del conss, 161 add conss, 3732 chg bounds, 791 chg sides, 915 chg coeffs, 1132 upgd conss, 1199 impls, 795 clqs
(round 50, fast)       6651 del vars, 8567 del conss, 161 add conss, 3732 chg bounds, 791 chg sides, 915 chg coeffs, 1132 upgd conss, 1199 impls, 790 clqs
(round 51, fast)       6717 del vars, 8586 del conss, 161 add conss, 3732 chg bounds, 791 chg sides, 915 chg coeffs, 1132 upgd conss, 1199 impls, 702 clqs
(round 52, exhaustive) 6717 del vars, 8586 del conss, 161 add conss, 3732 chg bounds, 791 chg sides, 915 chg coeffs, 1135 upgd conss, 1199 impls, 702 clqs
(round 53, fast)       6724 del vars, 8588 del conss, 161 add conss, 3732 chg bounds, 791 chg sides, 915 chg coeffs, 1135 upgd conss, 1199 impls, 685 clqs
(round 54, fast)       6733 del vars, 8595 del conss, 165 add conss, 3732 chg bounds, 791 chg sides, 915 chg coeffs, 1135 upgd conss, 1202 impls, 675 clqs
   (0.2s) probing: 56/1062 (5.3%) - 167 fixings, 51 aggregations, 2380 implications, 0 bound changes
   (0.2s) probing aborted: 50/50 successive totally useless probings
Required symmetry:			(1 bin, 0 int, 0 cont); (fixed: 0 bin, 1 int, 0 cont)
Time for symmetry detection:		0.00 	(matrix graph, 2493 nodes, 4646 edges)
Number of generators:			84 	(max: 1500)
Log10 of symmetry group order:		66.7
Number of vars moved by some symmetry:	493
Total time for symmetry detection:	0.00

Turned off presolver <domcol>.
Turned off presolver <components>.

presolving (55 rounds: 55 fast, 22 medium, 17 exhaustive):
 6733 deleted vars, 8595 deleted constraints, 165 added constraints, 3732 tightened bounds, 0 added holes, 791 changed sides, 916 changed coefficients
 1202 implications, 675 cliques
presolved problem has 1048 variables (979 bin, 69 int, 0 impl, 0 cont) and 575 constraints
    371 constraints of type <varbound>
     96 constraints of type <knapsack>
     89 constraints of type <linear>
     18 constraints of type <logicor>
      1 constraints of type <symmetries>
transformed objective value is always integral (scale: 0.05)
Presolving Time: 0.20

 time | node  | left  |LP iter|LP it/n|mem/heur|mdpt |frac |vars |cons |cols |rows |cuts |confs|strbr|  dualbound   | primalbound  |  gap   
* 0.2s|     1 |     0 |    71 |     - |    LP  |   0 |   - |1048 | 583 |1048 | 573 |   0 |  10 |   0 | 8.375000e+01 | 8.375000e+01 |   0.00%
  0.2s|     1 |     0 |    71 |     - |    41M |   0 |   - |1048 | 583 |1048 | 573 |   0 |  10 |   0 | 8.375000e+01 | 8.375000e+01 |   0.00%

SCIP Status        : problem is solved [optimal solution found]
Solving Time (sec) : 0.25
Solving Nodes      : 1
Primal Bound       : +8.37500000000000e+01 (1 solutions)
Dual Bound         : +8.37500000000000e+01
Gap                : 0.00 %

Number of variables fixed to 0 by isomorphism pruning:	     0
Number of variables fixed to 1 by isomorphism pruning:	     0
@04 1686566709
